Gurobi Optimizer version 9.1.2 build v9.1.2rc0 (linux64)
Thread count: 36 physical cores, 72 logical processors, using up to 32 threads
Optimize a model with 12 rows, 57 columns and 590 nonzeros
Model fingerprint: 0xf32eec78
Model has 47 quadratic constraints
Coefficient statistics:
  Matrix range     [2e-05, 3e+00]
  QMatrix range    [1e+00, 1e+00]
  QLMatrix range   [1e+00, 1e+00]
  Objective range  [8e-03, 7e-01]
  Bounds range     [1e+00, 1e+00]
  RHS range        [1e+00, 1e+00]
Presolve removed 9 rows and 0 columns

Continuous model is non-convex -- solving as a MIP.

Presolve removed 9 rows and 0 columns
Presolve time: 0.00s
Presolved: 189 rows, 57 columns, 443 nonzeros
Presolved model has 47 bilinear constraint(s)
Variable types: 57 continuous, 0 integer (0 binary)

Root relaxation: objective -1.743721e+00, 44 iterations, 0.00 seconds

    Nodes    |    Current Node    |     Objective Bounds      |     Work
 Expl Unexpl |  Obj  Depth IntInf | Incumbent    BestBd   Gap | It/Node Time

     0     0   -1.74372    0   38          -   -1.74372      -     -    0s
H    0     0                       0.6147548   -1.74372   384%     -    0s
     0     0   -1.64739    0    1    0.61475   -1.64739   368%     -    0s
H    0     0                      -1.6450460   -1.64739  0.14%     -    0s
     0     0     cutoff    0        -1.64505   -1.64505  0.00%     -    0s

Cutting planes:
  RLT: 25
  BQP: 3

Explored 1 nodes (76 simplex iterations) in 0.01 seconds
Thread count was 32 (of 72 available processors)

Solution count 2: -1.64505 0.614755 
No other solutions better than -1.64505

Optimal solution found (tolerance 1.00e-04)
Best objective -1.645045978473e+00, best bound -1.645045978473e+00, gap 0.0000%

User-callback calls 78, time in user-callback 0.00 sec
Gurobi Optimizer version 9.1.2 build v9.1.2rc0 (linux64)
Thread count: 36 physical cores, 72 logical processors, using up to 32 threads
Optimize a model with 60 rows, 312 columns and 16100 nonzeros
Model fingerprint: 0x11e06206
Model has 262 quadratic constraints
Coefficient statistics:
  Matrix range     [4e-07, 7e+00]
  QMatrix range    [1e+00, 1e+00]
  QLMatrix range   [1e+00, 1e+00]
  Objective range  [1e-03, 8e-01]
  Bounds range     [1e+00, 1e+00]
  RHS range        [1e+00, 1e+00]
Presolve removed 16 rows and 0 columns

Continuous model is non-convex -- solving as a MIP.

Presolve removed 16 rows and 0 columns
Presolve time: 0.01s
Presolved: 1080 rows, 312 columns, 13136 nonzeros
Presolved model has 262 bilinear constraint(s)
Variable types: 312 continuous, 0 integer (0 binary)

Root relaxation: objective -1.519871e+01, 299 iterations, 0.01 seconds

    Nodes    |    Current Node    |     Objective Bounds      |     Work
 Expl Unexpl |  Obj  Depth IntInf | Incumbent    BestBd   Gap | It/Node Time

     0     0  -15.19871    0  161          -  -15.19871      -     -    0s
     0     0  -14.79652    0   33          -  -14.79652      -     -    0s
     0     0  -14.77750    0   30          -  -14.77750      -     -    0s
     0     0  -14.68626    0   27          -  -14.68626      -     -    0s
     0     0  -14.66223    0   26          -  -14.66223      -     -    0s
     0     0  -14.65851    0   26          -  -14.65851      -     -    0s
     0     0  -14.65710    0   26          -  -14.65710      -     -    0s
     0     0  -14.65648    0   26          -  -14.65648      -     -    0s
     0     0  -14.65566    0   26          -  -14.65566      -     -    0s
     0     0  -14.65496    0   26          -  -14.65496      -     -    0s
     0     0  -14.65478    0   26          -  -14.65478      -     -    0s
     0     0  -14.65464    0   26          -  -14.65464      -     -    0s
     0     2  -14.65464    0   26          -  -14.65464      -     -    0s
* 2299  2294              47     -13.8940814  -14.31058  3.00%  31.3    1s
* 2312  1949              48     -14.0417445  -14.31058  1.91%  31.2    1s
* 2358  1949              46     -14.0689789  -14.31058  1.72%  30.9    1s
* 2813  1850              50     -14.1575148  -14.28756  0.92%  30.2    1s
* 4728   451              67     -14.1606179  -14.28756  0.90%  31.3    2s
* 4759   411              55     -14.1611185  -14.28756  0.89%  31.2    2s
* 4908   360              61     -14.1611857  -14.28756  0.89%  30.7    2s
* 4932   360              59     -14.1611991  -14.28756  0.89%  30.7    2s
* 4933   360              59     -14.1612029  -14.28756  0.89%  30.7    2s
* 4971   360              47     -14.1613743  -14.28756  0.89%  30.6    2s
* 4973   360              45     -14.1614041  -14.28756  0.89%  30.6    2s
* 5395   479              48     -14.1615493  -14.28756  0.89%  29.6    2s
* 5449   479              62     -14.1615839  -14.28756  0.89%  29.5    2s
* 5489   514              69     -14.1617097  -14.28756  0.89%  29.5    2s
* 5602   558              70     -14.1617348  -14.28756  0.89%  29.2    2s
* 5606   558              70     -14.1617797  -14.28756  0.89%  29.2    2s
* 5608   558              71     -14.1617839  -14.28756  0.89%  29.2    2s
* 5688   558              65     -14.1620898  -14.28756  0.89%  29.0    2s
* 5817   609              46     -14.1626595  -14.28756  0.88%  28.7    2s
* 5934   646              46     -14.1628618  -14.28756  0.88%  28.5    2s
* 5937   646              46     -14.1628684  -14.28756  0.88%  28.5    2s
* 6074   669              40     -14.1630069  -14.28756  0.88%  28.3    2s
* 6235   707              40     -14.1630096  -14.28756  0.88%  27.9    2s
* 6245   707              64     -14.1631852  -14.28756  0.88%  27.9    2s
* 6247   707              65     -14.1631858  -14.28756  0.88%  27.9    2s
* 6455   798              55     -14.1632098  -14.28756  0.88%  27.5    3s
* 6457   798              56     -14.1632572  -14.28756  0.88%  27.5    3s
* 6910   939              60     -14.1671099  -14.28756  0.85%  26.7    3s
* 7193  1072              63     -14.1671749  -14.28756  0.85%  26.2    3s
* 7194  1072              63     -14.1671766  -14.28756  0.85%  26.2    3s
* 7196  1072              63     -14.1671800  -14.28756  0.85%  26.2    3s
* 7197  1072              63     -14.1671816  -14.28756  0.85%  26.2    3s
* 7237  1072              63     -14.1676401  -14.28756  0.85%  26.1    3s
* 7239  1072              62     -14.1677397  -14.28756  0.85%  26.1    3s
* 7665  1253              58     -14.1677723  -14.28756  0.85%  25.5    3s
* 7667  1253              59     -14.1677946  -14.28756  0.85%  25.5    3s
* 7744  1253              61     -14.1692961  -14.28756  0.83%  25.3    3s
* 8250  1385              59     -14.1693197  -14.28756  0.83%  24.6    3s
* 8251  1385              59     -14.1693259  -14.28756  0.83%  24.6    3s
* 8362  1486              67     -14.1702939  -14.28756  0.83%  24.5    3s
* 8581  1590              69     -14.1742343  -14.26861  0.67%  24.2    3s
* 8840  1687              70     -14.1742367  -14.26700  0.65%  23.9    3s
* 9782  1905              75     -14.1771621  -14.23327  0.40%  22.8    3s
* 9783  1905              75     -14.1772453  -14.23327  0.40%  22.8    3s
*10303  1777              67     -14.1780859  -14.21627  0.27%  22.2    4s
*10624  1813              62     -14.1781210  -14.21619  0.27%  21.9    4s
*10835  1841              72     -14.1784867  -14.20449  0.18%  21.7    4s
*10836  1841              72     -14.1784873  -14.20449  0.18%  21.6    4s
*11117  1841              63     -14.1835686  -14.20449  0.15%  21.4    4s
*11943  1656              56     -14.1836245  -14.19386  0.07%  20.7    4s
*12214  1695              58     -14.1840034  -14.19386  0.07%  20.4    4s
*12574  1755              65     -14.1840133  -14.19386  0.07%  20.0    4s
*12576  1755              66     -14.1840365  -14.19386  0.07%  20.0    4s
*12898  1755              58     -14.1843586  -14.19386  0.07%  19.7    4s
*12963  1628              58     -14.1845119  -14.19216  0.05%  19.7    4s
*12968  1628              60     -14.1845140  -14.19216  0.05%  19.7    4s
*12974  1628              61     -14.1845193  -14.19216  0.05%  19.7    4s
*13523  1736              63     -14.1847375  -14.19216  0.05%  19.2    4s
*14254  1656              60     -14.1847519  -14.18895  0.03%  18.6    4s
 14654  1635  -14.18509   49   15  -14.18475  -14.18886  0.03%  18.3    5s
*14700  1635              61     -14.1847697  -14.18826  0.02%  18.2    5s
*14701  1635              61     -14.1847700  -14.18826  0.02%  18.2    5s
*15178  1635              60     -14.1847844  -14.18826  0.02%  17.9    5s
*15179  1635              60     -14.1847851  -14.18826  0.02%  17.9    5s
*15181  1635              59     -14.1847884  -14.18826  0.02%  17.9    5s
*15380  1650              57     -14.1848079  -14.18594  0.01%  17.7    5s

Explored 15813 nodes (275412 simplex iterations) in 5.12 seconds
Thread count was 32 (of 72 available processors)

Solution count 10: -14.1848 -14.1848 -14.1848 ... -14.1844

Optimal solution found (tolerance 1.00e-04)
Best objective -1.418480791510e+01, best bound -1.418593627147e+01, gap 0.0080%

User-callback calls 32575, time in user-callback 0.01 sec



objective value: -14.184807915101846
objective bound: -14.185936271467314
x_opt: [1.0, 1.0, 0.10765199991397098, 0.1881033895008498, 0.0, 0.0, 1.0, 0.0, 0.0, 0.0, 1.0, 0.0, 1.0, 1.0, 0.05878798368185702, 1.0, 0.0, 1.0, 0.0, 0.0, 0.6510743172138961, 0.7151994031086856, 0.0, 0.7371798700985475, 0.0, 0.6850800017024259, 0.0, 1.0, 0.0, 0.0, 1.0, 0.8122952472488136, 0.0, 0.2878945950920054, 1.0, 1.000000002289367, 0.18367764173924694, 1.0, 0.0, 1.0, 1.0, 0.0, 1.0, 0.0, 0.0, 0.0, 0.749774735178884, 0.049839885395442075, 1.0, 0.0022723940435371197]
GUROBI solution time: 5.12031888961792




